0 0 2 0
0 1 0 1
1 0 1 0
2 0 2 1
1 1 2 8
2 1 3 6
3 0 1 8
2 2 5 10
4 0 2 13
3 1 0 13
5 0 1 13
5 1 3 16
2 3 0 18
5 2 5 19
0 2 1 16
0 3 3 22
4 1 1 22
1 2 4 13
1 3 5 28
2 4 1 27
4 2 4 25
5 3 0 28
3 2 2 22
3 3 3 29
1 4 0 38
4 3 5 38
0 4 5 42
2 5 4 30
3 4 4 37
3 5 5 45
5 4 4 45
4 4 0 48
5 5 2 49
0 5 4 49
1 5 3 48
4 5 3 52
